36
120
81	2
80	1
79	1
77	2
76	1
72	2
71	1
68	1
66	1
65	1
64	1
60	1
58	3
56	1
54	2
52	1
50	1
48	2
45	2
44	1
42	1
41	1
40	2
39	2
38	1
37	2
32	1
30	1
26	1
25	1
24	1
22	1
21	2
17	2
15	2
12	1
